500
1000
627
627
625
625
621
614
612
608
608
608
607
607
606
605
603
602
601
601
601
599
599
598
598
597
592
591
590
589
589
586
586
583
582
581
581
580
579
578
577
577
576
573
573
572
569
567
566
564
563
563
563
563
562
561
560
557
556
555
555
552
549
548
545
545
541
541
541
537
536
535
535
533
533
531
527
526
526
523
522
522
521
520
518
518
516
515
515
515
513
513
510
508
508
508
507
505
505
504
502
500
500
499
498
495
494
491
490
489
486
484
484
480
479
478
477
475
474
473
472
468
464
463
462
462
461
460
459
458
458
458
456
456
451
451
451
451
450
448
447
446
444
442
442
442
440
439
439
438
438
437
437
437
436
435
433
429
429
428
425
424
424
423
423
421
421
417
415
413
411
411
409
408
407
404
404
403
403
402
402
401
397
397
396
395
394
393
393
390
390
388
387
385
384
384
382
382
382
379
377
377
377
375
375
374
374
374
374
372
364
364
364
363
363
362
361
361
360
359
358
358
358
357
356
355
354
349
349
348
347
346
345
344
344
341
341
341
340
338
336
334
334
333
333
332
331
331
329
328
323
321
320
318
317
316
315
315
315
311
311
310
307
307
306
305
302
301
299
298
298
297
296
296
295
293
292
290
287
285
285
284
283
283
282
280
280
280
279
279
278
277
272
272
271
270
269
269
267
266
263
262
260
260
254
254
252
250
250
250
249
247
245
244
243
243
242
242
240
239
239
239
239
238
234
231
230
230
229
228
228
225
225
225
224
224
223
222
220
219
217
214
213
213
211
211
206
205
205
203
203
202
202
201
200
198
198
197
196
195
194
192
192
190
190
190
190
190
189
186
186
186
184
183
182
182
181
179
178
178
178
177
176
175
175
175
167
166
165
162
160
160
160
159
159
158
157
156
155
153
153
152
150
150
149
149
147
147
147
144
144
143
143
141
139
133
132
130
127
127
126
126
125
125
123
122
121
120
119
117
117
115
115
112
111
110
110
108
108
106
106
106
106
104
102
101
100
99
99
98
98
96
93
93
93
92
88
86
84
83
82
82
80
79
79
78
78
76
75
73
73
71
71
70
70
68
66
61
61
60
58
56
56
56
55
54
51
47
47
47
47
46
45
44
44
44
43
40
40
39
37
37
